35 35
22
3 3   7 32
3 4   32 31
3 5   7 27
3 6   4 29
3 7   4 0 
3 8   7 19
3 9   32 12
3 10  32 21
3 12  32 0 
3 19  7 0 
3 22  4 7 
4 3   0 24
4 4   0 0 
4 5   28 30
4 6   10 0 
4 7   28 23
4 8   0 27
4 12  10 23
4 17  10 6 
4 20  0 4 
4 23  28 0 
14 35  14 0 
